c Modular CNF with 3 modules
c Generated CNF instance
p cnf 30 480
9 8 6 0
9 8 -6 0
9 -8 6 0
-9 8 6 0
2 10 1 0
2 10 -1 0
2 -10 1 0
-2 10 1 0
3 2 6 0
3 2 -6 0
3 -2 6 0
-3 2 6 0
1 9 6 0
1 9 -6 0
1 -9 6 0
-1 9 6 0
5 4 8 0
5 4 -8 0
5 -4 8 0
-5 4 8 0
3 9 1 0
3 9 -1 0
3 -9 1 0
-3 9 1 0
4 3 2 0
4 3 -2 0
4 -3 2 0
-4 3 2 0
4 7 6 0
4 7 -6 0
4 -7 6 0
-4 7 6 0
2 10 3 0
2 10 -3 0
2 -10 3 0
-2 10 3 0
4 6 10 0
4 6 -10 0
4 -6 10 0
-4 6 10 0
4 2 8 0
4 2 -8 0
4 -2 8 0
-4 2 8 0
8 5 6 0
8 5 -6 0
8 -5 6 0
-8 5 6 0
3 8 6 0
3 8 -6 0
3 -8 6 0
-3 8 6 0
8 6 7 0
8 6 -7 0
8 -6 7 0
-8 6 7 0
6 10 7 0
6 10 -7 0
6 -10 7 0
-6 10 7 0
6 1 4 0
6 1 -4 0
6 -1 4 0
-6 1 4 0
8 3 5 0
8 3 -5 0
8 -3 5 0
-8 3 5 0
1 4 8 0
1 4 -8 0
1 -4 8 0
-1 4 8 0
5 6 8 0
5 6 -8 0
5 -6 8 0
-5 6 8 0
8 10 9 0
8 10 -9 0
8 -10 9 0
-8 10 9 0
4 9 1 0
4 9 -1 0
4 -9 1 0
-4 9 1 0
2 10 8 0
2 10 -8 0
2 -10 8 0
-2 10 8 0
5 1 2 0
5 1 -2 0
5 -1 2 0
-5 1 2 0
3 1 10 0
3 1 -10 0
3 -1 10 0
-3 1 10 0
8 7 6 0
8 7 -6 0
8 -7 6 0
-8 7 6 0
4 9 5 0
4 9 -5 0
4 -9 5 0
-4 9 5 0
2 3 9 0
2 3 -9 0
2 -3 9 0
-2 3 9 0
6 4 7 0
6 4 -7 0
6 -4 7 0
-6 4 7 0
2 1 6 0
2 1 -6 0
2 -1 6 0
-2 1 6 0
9 3 1 0
9 3 -1 0
9 -3 1 0
-9 3 1 0
7 4 3 0
7 4 -3 0
7 -4 3 0
-7 4 3 0
6 7 5 0
6 7 -5 0
6 -7 5 0
-6 7 5 0
1 6 5 0
1 6 -5 0
1 -6 5 0
-1 6 5 0
4 8 10 0
4 8 -10 0
4 -8 10 0
-4 8 10 0
9 3 7 0
9 3 -7 0
9 -3 7 0
-9 3 7 0
7 1 8 0
7 1 -8 0
7 -1 8 0
-7 1 8 0
10 8 3 0
10 8 -3 0
10 -8 3 0
-10 8 3 0
9 7 2 0
9 7 -2 0
9 -7 2 0
-9 7 2 0
4 5 10 0
4 5 -10 0
4 -5 10 0
-4 5 10 0
5 8 3 0
5 8 -3 0
5 -8 3 0
-5 8 3 0
14 11 16 0
14 11 -16 0
14 -11 16 0
-14 11 16 0
11 19 16 0
11 19 -16 0
11 -19 16 0
-11 19 16 0
11 19 13 0
11 19 -13 0
11 -19 13 0
-11 19 13 0
12 11 20 0
12 11 -20 0
12 -11 20 0
-12 11 20 0
17 16 11 0
17 16 -11 0
17 -16 11 0
-17 16 11 0
18 17 15 0
18 17 -15 0
18 -17 15 0
-18 17 15 0
18 12 19 0
18 12 -19 0
18 -12 19 0
-18 12 19 0
13 20 15 0
13 20 -15 0
13 -20 15 0
-13 20 15 0
16 15 17 0
16 15 -17 0
16 -15 17 0
-16 15 17 0
20 18 14 0
20 18 -14 0
20 -18 14 0
-20 18 14 0
16 11 19 0
16 11 -19 0
16 -11 19 0
-16 11 19 0
16 17 12 0
16 17 -12 0
16 -17 12 0
-16 17 12 0
20 17 12 0
20 17 -12 0
20 -17 12 0
-20 17 12 0
15 13 11 0
15 13 -11 0
15 -13 11 0
-15 13 11 0
19 13 11 0
19 13 -11 0
19 -13 11 0
-19 13 11 0
19 17 15 0
19 17 -15 0
19 -17 15 0
-19 17 15 0
11 19 15 0
11 19 -15 0
11 -19 15 0
-11 19 15 0
13 15 19 0
13 15 -19 0
13 -15 19 0
-13 15 19 0
15 20 13 0
15 20 -13 0
15 -20 13 0
-15 20 13 0
11 20 13 0
11 20 -13 0
11 -20 13 0
-11 20 13 0
19 13 16 0
19 13 -16 0
19 -13 16 0
-19 13 16 0
18 12 14 0
18 12 -14 0
18 -12 14 0
-18 12 14 0
11 18 20 0
11 18 -20 0
11 -18 20 0
-11 18 20 0
14 19 15 0
14 19 -15 0
14 -19 15 0
-14 19 15 0
20 14 11 0
20 14 -11 0
20 -14 11 0
-20 14 11 0
12 11 19 0
12 11 -19 0
12 -11 19 0
-12 11 19 0
14 11 15 0
14 11 -15 0
14 -11 15 0
-14 11 15 0
11 15 17 0
11 15 -17 0
11 -15 17 0
-11 15 17 0
16 18 12 0
16 18 -12 0
16 -18 12 0
-16 18 12 0
13 17 20 0
13 17 -20 0
13 -17 20 0
-13 17 20 0
18 14 11 0
18 14 -11 0
18 -14 11 0
-18 14 11 0
12 18 14 0
12 18 -14 0
12 -18 14 0
-12 18 14 0
18 16 20 0
18 16 -20 0
18 -16 20 0
-18 16 20 0
12 13 11 0
12 13 -11 0
12 -13 11 0
-12 13 11 0
15 11 14 0
15 11 -14 0
15 -11 14 0
-15 11 14 0
17 14 19 0
17 14 -19 0
17 -14 19 0
-17 14 19 0
13 19 14 0
13 19 -14 0
13 -19 14 0
-13 19 14 0
11 13 19 0
11 13 -19 0
11 -13 19 0
-11 13 19 0
11 17 18 0
11 17 -18 0
11 -17 18 0
-11 17 18 0
11 17 12 0
11 17 -12 0
11 -17 12 0
-11 17 12 0
26 29 22 0
26 29 -22 0
26 -29 22 0
-26 29 22 0
29 25 28 0
29 25 -28 0
29 -25 28 0
-29 25 28 0
29 30 22 0
29 30 -22 0
29 -30 22 0
-29 30 22 0
22 30 23 0
22 30 -23 0
22 -30 23 0
-22 30 23 0
27 21 23 0
27 21 -23 0
27 -21 23 0
-27 21 23 0
24 27 23 0
24 27 -23 0
24 -27 23 0
-24 27 23 0
21 27 30 0
21 27 -30 0
21 -27 30 0
-21 27 30 0
23 26 24 0
23 26 -24 0
23 -26 24 0
-23 26 24 0
24 25 23 0
24 25 -23 0
24 -25 23 0
-24 25 23 0
28 24 21 0
28 24 -21 0
28 -24 21 0
-28 24 21 0
26 28 29 0
26 28 -29 0
26 -28 29 0
-26 28 29 0
26 28 25 0
26 28 -25 0
26 -28 25 0
-26 28 25 0
24 30 23 0
24 30 -23 0
24 -30 23 0
-24 30 23 0
27 26 29 0
27 26 -29 0
27 -26 29 0
-27 26 29 0
24 23 26 0
24 23 -26 0
24 -23 26 0
-24 23 26 0
25 24 21 0
25 24 -21 0
25 -24 21 0
-25 24 21 0
25 23 27 0
25 23 -27 0
25 -23 27 0
-25 23 27 0
26 30 28 0
26 30 -28 0
26 -30 28 0
-26 30 28 0
25 23 22 0
25 23 -22 0
25 -23 22 0
-25 23 22 0
29 24 22 0
29 24 -22 0
29 -24 22 0
-29 24 22 0
23 26 27 0
23 26 -27 0
23 -26 27 0
-23 26 27 0
30 25 21 0
30 25 -21 0
30 -25 21 0
-30 25 21 0
27 21 28 0
27 21 -28 0
27 -21 28 0
-27 21 28 0
27 22 28 0
27 22 -28 0
27 -22 28 0
-27 22 28 0
28 25 23 0
28 25 -23 0
28 -25 23 0
-28 25 23 0
27 30 26 0
27 30 -26 0
27 -30 26 0
-27 30 26 0
30 27 24 0
30 27 -24 0
30 -27 24 0
-30 27 24 0
27 25 29 0
27 25 -29 0
27 -25 29 0
-27 25 29 0
29 27 21 0
29 27 -21 0
29 -27 21 0
-29 27 21 0
29 26 27 0
29 26 -27 0
29 -26 27 0
-29 26 27 0
30 22 23 0
30 22 -23 0
30 -22 23 0
-30 22 23 0
29 25 23 0
29 25 -23 0
29 -25 23 0
-29 25 23 0
27 23 25 0
27 23 -25 0
27 -23 25 0
-27 23 25 0
24 21 27 0
24 21 -27 0
24 -21 27 0
-24 21 27 0
29 23 21 0
29 23 -21 0
29 -23 21 0
-29 23 21 0
24 25 22 0
24 25 -22 0
24 -25 22 0
-24 25 22 0
29 21 24 0
29 21 -24 0
29 -21 24 0
-29 21 24 0
22 23 25 0
22 23 -25 0
22 -23 25 0
-22 23 25 0
21 27 23 0
21 27 -23 0
21 -27 23 0
-21 27 23 0
25 29 24 0
25 29 -24 0
25 -29 24 0
-25 29 24 0
